(set-info :source |printed by MathSAT|)
(declare-fun |.x{465}| () Int)
(declare-fun |.y{47}| () Int)
(declare-fun |.y{27}| () Int)
(declare-fun |.y{48}| () Int)
(declare-fun |.y{28}| () Int)
(declare-fun |.y{49}| () Int)
(declare-fun |.x{466}| () (Array Int Int))
(declare-fun |.y{50}| () (Array Int Int))
(declare-fun |.x{469}| () Int)
(declare-fun |.y{51}| () Int)
(declare-fun |.x{470}| () (Array Int Int))
(declare-fun |.y{52}| () (Array Int Int))
(declare-fun |.x{468}| () Int)
(declare-fun |.y{53}| () Int)
(declare-fun |.x{462}| () Int)
(declare-fun |.y{54}| () Int)
(declare-fun |.y{29}| () Int)
(declare-fun |.y{55}| () Int)
(declare-fun |.y{30}| () Int)
(declare-fun |.y{56}| () Int)
(declare-fun |.y{31}| () Int)
(declare-fun |.y{57}| () Int)
(declare-fun |.y{32}| () Int)
(declare-fun |.y{58}| () Int)
(declare-fun |.y{33}| () (Array Int Int))
(declare-fun |.y{59}| () (Array Int Int))
(declare-fun |.y{34}| () (Array Int Int))
(declare-fun |.y{60}| () (Array Int Int))
(declare-fun |.y{35}| () (Array Int Int))
(declare-fun |.y{61}| () (Array Int Int))
(declare-fun |.y{36}| () (Array Int Int))
(declare-fun |.y{62}| () (Array Int Int))
(declare-fun |.y{37}| () (Array Int Int))
(declare-fun |.y{63}| () (Array Int Int))
(declare-fun |.y{38}| () Int)
(declare-fun |.y{64}| () Int)
(declare-fun |.y{39}| () Int)
(declare-fun |.y{65}| () Int)
(declare-fun |.y{40}| () Int)
(declare-fun |.y{66}| () Int)
(declare-fun |.y{41}| () Int)
(declare-fun |.y{67}| () Int)
(declare-fun |.y{42}| () Int)
(declare-fun |.y{68}| () Int)
(declare-fun |.y{43}| () (Array Int Int))
(declare-fun |.y{69}| () (Array Int Int))
(declare-fun |.y{44}| () (Array Int Int))
(declare-fun |.y{70}| () (Array Int Int))
(declare-fun |.y{45}| () (Array Int Int))
(declare-fun |.y{71}| () (Array Int Int))
(declare-fun |.y{46}| () (Array Int Int))
(declare-fun |.y{72}| () (Array Int Int))
(declare-fun |.loc{5}| () Bool)
(declare-fun |.loc{9}| () Bool)
(declare-fun |.loc{6}| () Bool)
(declare-fun |.loc{10}| () Bool)
(declare-fun |.loc{7}| () Bool)
(declare-fun |.loc{11}| () Bool)
(declare-fun |.loc{8}| () Bool)
(declare-fun |.loc{12}| () Bool)
(declare-fun |.x{471}| () Int)
(declare-fun |.x{50}| () Int)
(declare-fun |.x{467}| () Int)
(define-fun .def_60 () Bool (! |.loc{5}| :next |.loc{9}|))
(define-fun .def_169 () Bool (not .def_60))
(define-fun .def_62 () Bool (! |.loc{6}| :next |.loc{10}|))
(define-fun .def_150 () Bool (not .def_62))
(define-fun .def_544 () Bool (and .def_150 .def_169))
(define-fun .def_64 () Bool (! |.loc{7}| :next |.loc{11}|))
(define-fun .def_96 () Bool (not .def_64))
(define-fun .def_545 () Bool (and .def_96 .def_544))
(define-fun .def_66 () Bool (! |.loc{8}| :next |.loc{12}|))
(define-fun .def_542 () Bool (not .def_66))
(define-fun .def_546 () Bool (! (and .def_542 .def_545) :init true))
(define-fun .def_14 () (Array Int Int) (! |.x{466}| :next |.y{50}|))
(define-fun .def_497 () Int (select .def_14 |.x{467}|))
(define-fun .def_18 () (Array Int Int) (! |.x{470}| :next |.y{52}|))
(define-fun .def_496 () Int (select .def_18 |.x{471}|))
(define-fun .def_498 () Bool (= .def_496 .def_497))
(define-fun .def_512 () Bool (not .def_498))
(define-fun .def_513 () Bool (and |.loc{12}| .def_512))
(define-fun .def_189 () Bool (not |.loc{9}|))
(define-fun .def_514 () Bool (and .def_189 .def_513))
(define-fun .def_68 () Bool (not |.loc{10}|))
(define-fun .def_515 () Bool (and .def_68 .def_514))
(define-fun .def_116 () Int (* (- 1) |.x{471}|))
(define-fun .def_20 () Int (! |.x{468}| :next |.y{53}|))
(define-fun .def_222 () Int (+ .def_20 .def_116))
(define-fun .def_16 () Int (! |.x{469}| :next |.y{51}|))
(define-fun .def_475 () Int (+ .def_16 .def_222))
(define-fun .def_476 () Bool (= .def_475 0))
(define-fun .def_516 () Bool (and .def_476 .def_515))
(define-fun .def_76 () Bool (not |.loc{11}|))
(define-fun .def_517 () Bool (and .def_76 .def_516))
(define-fun .def_22 () Int (! |.x{462}| :next |.y{54}|))
(define-fun .def_478 () Bool (<= .def_22 .def_20))
(define-fun .def_479 () Bool (not .def_478))
(define-fun .def_518 () Bool (and .def_479 .def_517))
(define-fun .def_8 () Int (! |.x{465}| :next |.y{47}|))
(define-fun .def_481 () Bool (<= .def_8 0))
(define-fun .def_108 () Bool (<= |.x{467}| 0))
(define-fun .def_109 () Bool (not .def_108))
(define-fun .def_482 () Bool (or .def_109 .def_481))
(define-fun .def_519 () Bool (and .def_482 .def_518))
(define-fun .def_484 () Bool (not .def_481))
(define-fun .def_520 () Bool (and .def_484 .def_519))
(define-fun .def_521 () Bool (and .def_60 .def_520))
(define-fun .def_73 () Bool (<= .def_16 0))
(define-fun .def_71 () Bool (<= |.x{471}| 0))
(define-fun .def_72 () Bool (not .def_71))
(define-fun .def_74 () Bool (or .def_72 .def_73))
(define-fun .def_522 () Bool (and .def_74 .def_521))
(define-fun .def_523 () Bool (and .def_74 .def_522))
(define-fun .def_83 () Bool (not .def_73))
(define-fun .def_524 () Bool (and .def_83 .def_523))
(define-fun .def_102 () Int (* (- 1) |.x{467}|))
(define-fun .def_210 () Int (+ .def_20 .def_102))
(define-fun .def_493 () Int (+ .def_8 .def_210))
(define-fun .def_494 () Bool (= .def_493 0))
(define-fun .def_525 () Bool (and .def_494 .def_524))
(define-fun .def_277 () Bool (= |.y{53}| 0))
(define-fun .def_501 () Bool (and |.loc{9}| .def_277))
(define-fun .def_502 () Bool (and |.loc{10}| .def_501))
(define-fun .def_42 () Int (! |.y{38}| :next |.y{64}|))
(define-fun .def_437 () Bool (<= .def_42 .def_20))
(define-fun .def_503 () Bool (and .def_437 .def_502))
(define-fun .def_504 () Bool (and |.loc{11}| .def_503))
(define-fun .def_138 () Bool (= .def_8 |.y{47}|))
(define-fun .def_505 () Bool (and .def_138 .def_504))
(define-fun .def_242 () Bool (= .def_14 |.y{50}|))
(define-fun .def_506 () Bool (and .def_242 .def_505))
(define-fun .def_339 () Bool (= |.y{51}| .def_22))
(define-fun .def_507 () Bool (and .def_339 .def_506))
(define-fun .def_32 () (Array Int Int) (! |.y{33}| :next |.y{59}|))
(define-fun .def_341 () Bool (= |.y{52}| .def_32))
(define-fun .def_508 () Bool (and .def_341 .def_507))
(define-fun .def_343 () Bool (= |.y{54}| .def_42))
(define-fun .def_509 () Bool (and .def_343 .def_508))
(define-fun .def_127 () Bool (not |.loc{12}|))
(define-fun .def_510 () Bool (and .def_127 .def_509))
(define-fun .def_511 () Bool (and .def_169 .def_510))
(define-fun .def_526 () Bool (or .def_511 .def_525))
(define-fun .def_470 () Bool (and |.loc{9}| |.loc{10}|))
(define-fun .def_471 () Bool (and |.loc{11}| .def_470))
(define-fun .def_472 () Bool (and .def_138 .def_471))
(define-fun .def_473 () Bool (and .def_242 .def_472))
(define-fun .def_477 () Bool (and .def_473 .def_476))
(define-fun .def_480 () Bool (and .def_477 .def_479))
(define-fun .def_483 () Bool (and .def_480 .def_482))
(define-fun .def_485 () Bool (and .def_483 .def_484))
(define-fun .def_202 () Int (* (- 1) |.y{53}|))
(define-fun .def_203 () Int (+ .def_20 .def_202))
(define-fun .def_204 () Bool (= .def_203 (- 1)))
(define-fun .def_486 () Bool (and .def_204 .def_485))
(define-fun .def_487 () Bool (and .def_127 .def_486))
(define-fun .def_488 () Bool (and .def_60 .def_487))
(define-fun .def_114 () Bool (= .def_16 |.y{51}|))
(define-fun .def_489 () Bool (and .def_114 .def_488))
(define-fun .def_490 () Bool (and .def_74 .def_489))
(define-fun .def_219 () Bool (= .def_18 |.y{52}|))
(define-fun .def_491 () Bool (and .def_219 .def_490))
(define-fun .def_492 () Bool (and .def_83 .def_491))
(define-fun .def_495 () Bool (and .def_492 .def_494))
(define-fun .def_499 () Bool (and .def_495 .def_498))
(define-fun .def_123 () Bool (= .def_22 |.y{54}|))
(define-fun .def_500 () Bool (and .def_123 .def_499))
(define-fun .def_527 () Bool (or .def_500 .def_526))
(define-fun .def_528 () Bool (and .def_62 .def_527))
(define-fun .def_52 () (Array Int Int) (! |.y{43}| :next |.y{69}|))
(define-fun .def_467 () Bool (= |.y{59}| .def_52))
(define-fun .def_455 () Bool (and |.loc{10}| .def_277))
(define-fun .def_456 () Bool (and |.loc{11}| .def_455))
(define-fun .def_457 () Bool (and .def_138 .def_456))
(define-fun .def_458 () Bool (and .def_189 .def_457))
(define-fun .def_459 () Bool (and .def_242 .def_458))
(define-fun .def_44 () Int (! |.y{39}| :next |.y{65}|))
(define-fun .def_345 () Bool (= |.y{64}| .def_44))
(define-fun .def_460 () Bool (and .def_345 .def_459))
(define-fun .def_461 () Bool (and .def_339 .def_460))
(define-fun .def_462 () Bool (and .def_341 .def_461))
(define-fun .def_463 () Bool (and .def_343 .def_462))
(define-fun .def_464 () Bool (and .def_127 .def_463))
(define-fun .def_465 () Bool (and .def_150 .def_464))
(define-fun .def_466 () Bool (and .def_60 .def_465))
(define-fun .def_468 () Bool (and .def_466 .def_467))
(define-fun .def_408 () Bool (<= .def_44 .def_20))
(define-fun .def_469 () Bool (and .def_408 .def_468))
(define-fun .def_529 () Bool (or .def_469 .def_528))
(define-fun .def_438 () Bool (not .def_437))
(define-fun .def_433 () Bool (and |.loc{10}| |.loc{11}|))
(define-fun .def_434 () Bool (and .def_189 .def_433))
(define-fun .def_435 () Bool (and .def_83 .def_434))
(define-fun .def_198 () Int (select .def_18 |.x{467}|))
(define-fun .def_199 () (Array Int Int) (store .def_32 |.x{471}| .def_198))
(define-fun .def_200 () Bool (= |.y{59}| .def_199))
(define-fun .def_436 () Bool (and .def_200 .def_435))
(define-fun .def_439 () Bool (and .def_436 .def_438))
(define-fun .def_440 () Bool (and .def_204 .def_439))
(define-fun .def_211 () Int (+ .def_16 .def_210))
(define-fun .def_212 () Bool (= .def_211 0))
(define-fun .def_441 () Bool (and .def_212 .def_440))
(define-fun .def_214 () Bool (or .def_73 .def_109))
(define-fun .def_442 () Bool (and .def_214 .def_441))
(define-fun .def_443 () Bool (and .def_114 .def_442))
(define-fun .def_444 () Bool (and .def_219 .def_443))
(define-fun .def_445 () Bool (and .def_123 .def_444))
(define-fun .def_224 () Int (+ .def_22 .def_116))
(define-fun .def_225 () Int (+ .def_20 .def_224))
(define-fun .def_226 () Bool (= .def_225 0))
(define-fun .def_446 () Bool (and .def_226 .def_445))
(define-fun .def_447 () Bool (and .def_127 .def_446))
(define-fun .def_448 () Bool (and .def_62 .def_447))
(define-fun .def_230 () Bool (<= .def_22 0))
(define-fun .def_231 () Bool (or .def_72 .def_230))
(define-fun .def_449 () Bool (and .def_231 .def_448))
(define-fun .def_233 () Bool (not .def_230))
(define-fun .def_450 () Bool (and .def_233 .def_449))
(define-fun .def_451 () Bool (and .def_169 .def_450))
(define-fun .def_452 () Bool (and .def_138 .def_451))
(define-fun .def_240 () Bool (= .def_42 |.y{64}|))
(define-fun .def_453 () Bool (and .def_240 .def_452))
(define-fun .def_454 () Bool (and .def_242 .def_453))
(define-fun .def_530 () Bool (or .def_454 .def_529))
(define-fun .def_54 () (Array Int Int) (! |.y{44}| :next |.y{70}|))
(define-fun .def_417 () Bool (= |.y{59}| .def_54))
(define-fun .def_393 () Bool (and |.loc{11}| .def_68))
(define-fun .def_418 () Bool (and .def_393 .def_417))
(define-fun .def_46 () Int (! |.y{40}| :next |.y{66}|))
(define-fun .def_370 () Bool (<= .def_46 .def_20))
(define-fun .def_419 () Bool (and .def_370 .def_418))
(define-fun .def_321 () Bool (= |.y{65}| .def_46))
(define-fun .def_420 () Bool (and .def_321 .def_419))
(define-fun .def_194 () Bool (= .def_52 |.y{69}|))
(define-fun .def_421 () Bool (and .def_194 .def_420))
(define-fun .def_422 () Bool (and .def_127 .def_421))
(define-fun .def_423 () Bool (and .def_169 .def_422))
(define-fun .def_424 () Bool (and .def_277 .def_423))
(define-fun .def_425 () Bool (and .def_138 .def_424))
(define-fun .def_426 () Bool (and .def_242 .def_425))
(define-fun .def_427 () Bool (and .def_339 .def_426))
(define-fun .def_428 () Bool (and .def_341 .def_427))
(define-fun .def_429 () Bool (and .def_343 .def_428))
(define-fun .def_430 () Bool (and .def_150 .def_429))
(define-fun .def_431 () Bool (and .def_345 .def_430))
(define-fun .def_432 () Bool (and |.loc{9}| .def_431))
(define-fun .def_531 () Bool (or .def_432 .def_530))
(define-fun .def_409 () Bool (not .def_408))
(define-fun .def_394 () Bool (and .def_83 .def_393))
(define-fun .def_395 () Bool (and .def_194 .def_394))
(define-fun .def_396 () Bool (and .def_200 .def_395))
(define-fun .def_397 () Bool (and .def_204 .def_396))
(define-fun .def_398 () Bool (and .def_212 .def_397))
(define-fun .def_399 () Bool (and .def_214 .def_398))
(define-fun .def_400 () Bool (and .def_114 .def_399))
(define-fun .def_401 () Bool (and .def_219 .def_400))
(define-fun .def_402 () Bool (and .def_123 .def_401))
(define-fun .def_403 () Bool (and .def_226 .def_402))
(define-fun .def_404 () Bool (and .def_127 .def_403))
(define-fun .def_405 () Bool (and .def_60 .def_404))
(define-fun .def_406 () Bool (and .def_231 .def_405))
(define-fun .def_407 () Bool (and .def_233 .def_406))
(define-fun .def_410 () Bool (and .def_407 .def_409))
(define-fun .def_411 () Bool (and .def_138 .def_410))
(define-fun .def_412 () Bool (and .def_240 .def_411))
(define-fun .def_413 () Bool (and .def_242 .def_412))
(define-fun .def_246 () Bool (= .def_44 |.y{65}|))
(define-fun .def_414 () Bool (and .def_246 .def_413))
(define-fun .def_415 () Bool (and .def_150 .def_414))
(define-fun .def_416 () Bool (and |.loc{9}| .def_415))
(define-fun .def_532 () Bool (or .def_416 .def_531))
(define-fun .def_533 () Bool (and .def_64 .def_532))
(define-fun .def_56 () (Array Int Int) (! |.y{45}| :next |.y{71}|))
(define-fun .def_376 () Bool (= |.y{59}| .def_56))
(define-fun .def_348 () Bool (and |.loc{11}| .def_189))
(define-fun .def_349 () Bool (and .def_68 .def_348))
(define-fun .def_375 () Bool (and .def_96 .def_349))
(define-fun .def_377 () Bool (and .def_375 .def_376))
(define-fun .def_378 () Bool (and .def_321 .def_377))
(define-fun .def_48 () Int (! |.y{41}| :next |.y{67}|))
(define-fun .def_290 () Bool (<= .def_48 .def_20))
(define-fun .def_379 () Bool (and .def_290 .def_378))
(define-fun .def_380 () Bool (and .def_194 .def_379))
(define-fun .def_324 () Bool (= |.y{66}| .def_48))
(define-fun .def_381 () Bool (and .def_324 .def_380))
(define-fun .def_217 () Bool (= .def_54 |.y{70}|))
(define-fun .def_382 () Bool (and .def_217 .def_381))
(define-fun .def_383 () Bool (and .def_127 .def_382))
(define-fun .def_384 () Bool (and .def_60 .def_383))
(define-fun .def_385 () Bool (and .def_62 .def_384))
(define-fun .def_386 () Bool (and .def_277 .def_385))
(define-fun .def_387 () Bool (and .def_138 .def_386))
(define-fun .def_388 () Bool (and .def_242 .def_387))
(define-fun .def_389 () Bool (and .def_339 .def_388))
(define-fun .def_390 () Bool (and .def_341 .def_389))
(define-fun .def_391 () Bool (and .def_343 .def_390))
(define-fun .def_392 () Bool (and .def_345 .def_391))
(define-fun .def_534 () Bool (or .def_392 .def_533))
(define-fun .def_371 () Bool (not .def_370))
(define-fun .def_350 () Bool (and .def_83 .def_349))
(define-fun .def_351 () Bool (and .def_194 .def_350))
(define-fun .def_352 () Bool (and .def_200 .def_351))
(define-fun .def_353 () Bool (and .def_204 .def_352))
(define-fun .def_354 () Bool (and .def_212 .def_353))
(define-fun .def_355 () Bool (and .def_214 .def_354))
(define-fun .def_356 () Bool (and .def_114 .def_355))
(define-fun .def_357 () Bool (and .def_217 .def_356))
(define-fun .def_358 () Bool (and .def_219 .def_357))
(define-fun .def_359 () Bool (and .def_123 .def_358))
(define-fun .def_360 () Bool (and .def_226 .def_359))
(define-fun .def_361 () Bool (and .def_127 .def_360))
(define-fun .def_362 () Bool (and .def_231 .def_361))
(define-fun .def_363 () Bool (and .def_64 .def_362))
(define-fun .def_364 () Bool (and .def_233 .def_363))
(define-fun .def_365 () Bool (and .def_169 .def_364))
(define-fun .def_366 () Bool (and .def_138 .def_365))
(define-fun .def_367 () Bool (and .def_240 .def_366))
(define-fun .def_368 () Bool (and .def_242 .def_367))
(define-fun .def_369 () Bool (and .def_246 .def_368))
(define-fun .def_372 () Bool (and .def_369 .def_371))
(define-fun .def_373 () Bool (and .def_150 .def_372))
(define-fun .def_252 () Bool (= .def_46 |.y{66}|))
(define-fun .def_374 () Bool (and .def_252 .def_373))
(define-fun .def_535 () Bool (or .def_374 .def_534))
(define-fun .def_50 () Int (! |.y{42}| :next |.y{68}|))
(define-fun .def_334 () Bool (= |.y{67}| .def_50))
(define-fun .def_58 () (Array Int Int) (! |.y{46}| :next |.y{72}|))
(define-fun .def_327 () Bool (= |.y{59}| .def_58))
(define-fun .def_319 () Bool (and |.loc{10}| .def_76))
(define-fun .def_320 () Bool (and .def_96 .def_319))
(define-fun .def_322 () Bool (and .def_320 .def_321))
(define-fun .def_323 () Bool (and .def_194 .def_322))
(define-fun .def_325 () Bool (and .def_323 .def_324))
(define-fun .def_326 () Bool (and .def_217 .def_325))
(define-fun .def_328 () Bool (and .def_326 .def_327))
(define-fun .def_236 () Bool (<= .def_50 .def_20))
(define-fun .def_329 () Bool (and .def_236 .def_328))
(define-fun .def_330 () Bool (and .def_127 .def_329))
(define-fun .def_331 () Bool (and .def_62 .def_330))
(define-fun .def_332 () Bool (and .def_169 .def_331))
(define-fun .def_333 () Bool (and .def_277 .def_332))
(define-fun .def_335 () Bool (and .def_333 .def_334))
(define-fun .def_336 () Bool (and .def_138 .def_335))
(define-fun .def_337 () Bool (and .def_242 .def_336))
(define-fun .def_244 () Bool (= .def_56 |.y{71}|))
(define-fun .def_338 () Bool (and .def_244 .def_337))
(define-fun .def_340 () Bool (and .def_338 .def_339))
(define-fun .def_342 () Bool (and .def_340 .def_341))
(define-fun .def_344 () Bool (and .def_342 .def_343))
(define-fun .def_346 () Bool (and .def_344 .def_345))
(define-fun .def_347 () Bool (and |.loc{9}| .def_346))
(define-fun .def_536 () Bool (or .def_347 .def_535))
(define-fun .def_291 () Bool (not .def_290))
(define-fun .def_292 () Bool (and |.loc{10}| .def_291))
(define-fun .def_293 () Bool (and .def_76 .def_292))
(define-fun .def_294 () Bool (and .def_83 .def_293))
(define-fun .def_295 () Bool (and .def_96 .def_294))
(define-fun .def_296 () Bool (and .def_194 .def_295))
(define-fun .def_297 () Bool (and .def_200 .def_296))
(define-fun .def_196 () Bool (= .def_48 |.y{67}|))
(define-fun .def_298 () Bool (and .def_196 .def_297))
(define-fun .def_299 () Bool (and .def_204 .def_298))
(define-fun .def_300 () Bool (and .def_212 .def_299))
(define-fun .def_301 () Bool (and .def_214 .def_300))
(define-fun .def_302 () Bool (and .def_114 .def_301))
(define-fun .def_303 () Bool (and .def_217 .def_302))
(define-fun .def_304 () Bool (and .def_219 .def_303))
(define-fun .def_305 () Bool (and .def_123 .def_304))
(define-fun .def_306 () Bool (and .def_226 .def_305))
(define-fun .def_307 () Bool (and .def_127 .def_306))
(define-fun .def_308 () Bool (and .def_60 .def_307))
(define-fun .def_309 () Bool (and .def_62 .def_308))
(define-fun .def_310 () Bool (and .def_231 .def_309))
(define-fun .def_311 () Bool (and .def_233 .def_310))
(define-fun .def_312 () Bool (and .def_138 .def_311))
(define-fun .def_313 () Bool (and .def_240 .def_312))
(define-fun .def_314 () Bool (and .def_242 .def_313))
(define-fun .def_315 () Bool (and .def_244 .def_314))
(define-fun .def_316 () Bool (and .def_246 .def_315))
(define-fun .def_317 () Bool (and |.loc{9}| .def_316))
(define-fun .def_318 () Bool (and .def_252 .def_317))
(define-fun .def_537 () Bool (or .def_318 .def_536))
(define-fun .def_288 () Bool (= .def_22 |.y{64}|))
(define-fun .def_286 () Bool (= .def_20 |.y{54}|))
(define-fun .def_10 () Int (! |.y{27}| :next |.y{48}|))
(define-fun .def_284 () Bool (= |.y{47}| .def_10))
(define-fun .def_40 () (Array Int Int) (! |.y{37}| :next |.y{63}|))
(define-fun .def_281 () Bool (= |.y{59}| .def_40))
(define-fun .def_38 () (Array Int Int) (! |.y{36}| :next |.y{62}|))
(define-fun .def_271 () Bool (= .def_38 |.y{72}|))
(define-fun .def_36 () (Array Int Int) (! |.y{35}| :next |.y{61}|))
(define-fun .def_269 () Bool (= .def_36 |.y{71}|))
(define-fun .def_34 () (Array Int Int) (! |.y{34}| :next |.y{60}|))
(define-fun .def_266 () Bool (= .def_34 |.y{70}|))
(define-fun .def_264 () Bool (= .def_32 |.y{69}|))
(define-fun .def_30 () Int (! |.y{32}| :next |.y{58}|))
(define-fun .def_262 () Bool (= .def_30 |.y{68}|))
(define-fun .def_28 () Int (! |.y{31}| :next |.y{57}|))
(define-fun .def_259 () Bool (= .def_28 |.y{67}|))
(define-fun .def_26 () Int (! |.y{30}| :next |.y{56}|))
(define-fun .def_257 () Bool (= .def_26 |.y{66}|))
(define-fun .def_24 () Int (! |.y{29}| :next |.y{55}|))
(define-fun .def_254 () Bool (= .def_24 |.y{65}|))
(define-fun .def_255 () Bool (and |.loc{10}| .def_254))
(define-fun .def_256 () Bool (and .def_189 .def_255))
(define-fun .def_258 () Bool (and .def_256 .def_257))
(define-fun .def_260 () Bool (and .def_258 .def_259))
(define-fun .def_261 () Bool (and .def_76 .def_260))
(define-fun .def_263 () Bool (and .def_261 .def_262))
(define-fun .def_265 () Bool (and .def_263 .def_264))
(define-fun .def_267 () Bool (and .def_265 .def_266))
(define-fun .def_268 () Bool (and .def_96 .def_267))
(define-fun .def_270 () Bool (and .def_268 .def_269))
(define-fun .def_272 () Bool (and .def_270 .def_271))
(define-fun .def_273 () Bool (and .def_114 .def_272))
(define-fun .def_274 () Bool (and .def_219 .def_273))
(define-fun .def_275 () Bool (and .def_127 .def_274))
(define-fun .def_276 () Bool (and .def_60 .def_275))
(define-fun .def_278 () Bool (and .def_276 .def_277))
(define-fun .def_279 () Bool (and .def_242 .def_278))
(define-fun .def_280 () Bool (and .def_150 .def_279))
(define-fun .def_282 () Bool (and .def_280 .def_281))
(define-fun .def_12 () Int (! |.y{28}| :next |.y{49}|))
(define-fun .def_93 () Bool (<= .def_30 .def_12))
(define-fun .def_283 () Bool (and .def_93 .def_282))
(define-fun .def_285 () Bool (and .def_283 .def_284))
(define-fun .def_287 () Bool (and .def_285 .def_286))
(define-fun .def_289 () Bool (and .def_287 .def_288))
(define-fun .def_538 () Bool (or .def_289 .def_537))
(define-fun .def_250 () Bool (= .def_58 |.y{72}|))
(define-fun .def_248 () Bool (= .def_50 |.y{68}|))
(define-fun .def_237 () Bool (not .def_236))
(define-fun .def_190 () Bool (and |.loc{10}| .def_189))
(define-fun .def_191 () Bool (and .def_76 .def_190))
(define-fun .def_192 () Bool (and .def_83 .def_191))
(define-fun .def_193 () Bool (and .def_96 .def_192))
(define-fun .def_195 () Bool (and .def_193 .def_194))
(define-fun .def_197 () Bool (and .def_195 .def_196))
(define-fun .def_201 () Bool (and .def_197 .def_200))
(define-fun .def_205 () Bool (and .def_201 .def_204))
(define-fun .def_213 () Bool (and .def_205 .def_212))
(define-fun .def_215 () Bool (and .def_213 .def_214))
(define-fun .def_216 () Bool (and .def_114 .def_215))
(define-fun .def_218 () Bool (and .def_216 .def_217))
(define-fun .def_220 () Bool (and .def_218 .def_219))
(define-fun .def_221 () Bool (and .def_123 .def_220))
(define-fun .def_227 () Bool (and .def_221 .def_226))
(define-fun .def_228 () Bool (and .def_127 .def_227))
(define-fun .def_229 () Bool (and .def_62 .def_228))
(define-fun .def_232 () Bool (and .def_229 .def_231))
(define-fun .def_234 () Bool (and .def_232 .def_233))
(define-fun .def_235 () Bool (and .def_169 .def_234))
(define-fun .def_238 () Bool (and .def_235 .def_237))
(define-fun .def_239 () Bool (and .def_138 .def_238))
(define-fun .def_241 () Bool (and .def_239 .def_240))
(define-fun .def_243 () Bool (and .def_241 .def_242))
(define-fun .def_245 () Bool (and .def_243 .def_244))
(define-fun .def_247 () Bool (and .def_245 .def_246))
(define-fun .def_249 () Bool (and .def_247 .def_248))
(define-fun .def_251 () Bool (and .def_249 .def_250))
(define-fun .def_253 () Bool (and .def_251 .def_252))
(define-fun .def_539 () Bool (or .def_253 .def_538))
(define-fun .def_184 () Bool (<= |.y{57}| 0))
(define-fun .def_185 () Bool (not .def_184))
(define-fun .def_181 () Bool (<= |.y{56}| 0))
(define-fun .def_182 () Bool (not .def_181))
(define-fun .def_178 () Bool (<= |.y{55}| 0))
(define-fun .def_179 () Bool (not .def_178))
(define-fun .def_174 () Bool (<= |.y{54}| 0))
(define-fun .def_175 () Bool (not .def_174))
(define-fun .def_171 () Bool (<= |.y{53}| 0))
(define-fun .def_172 () Bool (not .def_171))
(define-fun .def_166 () Bool (<= |.y{51}| 0))
(define-fun .def_167 () Bool (not .def_166))
(define-fun .def_162 () Bool (<= |.y{58}| 0))
(define-fun .def_163 () Bool (not .def_162))
(define-fun .def_159 () Bool (<= |.y{48}| 0))
(define-fun .def_160 () Bool (not .def_159))
(define-fun .def_157 () Bool (= |.y{49}| 0))
(define-fun .def_155 () Bool (and .def_68 .def_76))
(define-fun .def_156 () Bool (and .def_96 .def_155))
(define-fun .def_158 () Bool (and .def_156 .def_157))
(define-fun .def_161 () Bool (and .def_158 .def_160))
(define-fun .def_164 () Bool (and .def_161 .def_163))
(define-fun .def_165 () Bool (and .def_127 .def_164))
(define-fun .def_168 () Bool (and .def_165 .def_167))
(define-fun .def_170 () Bool (and .def_168 .def_169))
(define-fun .def_173 () Bool (and .def_170 .def_172))
(define-fun .def_176 () Bool (and .def_173 .def_175))
(define-fun .def_177 () Bool (and .def_138 .def_176))
(define-fun .def_180 () Bool (and .def_177 .def_179))
(define-fun .def_183 () Bool (and .def_180 .def_182))
(define-fun .def_186 () Bool (and .def_183 .def_185))
(define-fun .def_187 () Bool (and .def_150 .def_186))
(define-fun .def_188 () Bool (and |.loc{9}| .def_187))
(define-fun .def_540 () Bool (or .def_188 .def_539))
(define-fun .def_152 () Bool (= .def_40 |.y{63}|))
(define-fun .def_148 () Bool (= .def_38 |.y{62}|))
(define-fun .def_146 () Bool (= .def_36 |.y{61}|))
(define-fun .def_144 () Bool (= .def_34 |.y{60}|))
(define-fun .def_142 () Bool (= .def_32 |.y{59}|))
(define-fun .def_140 () Bool (= .def_30 |.y{58}|))
(define-fun .def_136 () Bool (= .def_28 |.y{57}|))
(define-fun .def_134 () Bool (= .def_26 |.y{56}|))
(define-fun .def_132 () Bool (= .def_24 |.y{55}|))
(define-fun .def_130 () Bool (= .def_20 |.y{53}|))
(define-fun .def_125 () Bool (= .def_10 |.y{48}|))
(define-fun .def_119 () Int (+ .def_16 .def_116))
(define-fun .def_120 () Int (+ .def_12 .def_119))
(define-fun .def_121 () Bool (= .def_120 0))
(define-fun .def_107 () Bool (<= .def_10 0))
(define-fun .def_112 () Bool (not .def_107))
(define-fun .def_110 () Bool (or .def_107 .def_109))
(define-fun .def_103 () Int (+ .def_12 .def_102))
(define-fun .def_104 () Int (+ .def_10 .def_103))
(define-fun .def_105 () Bool (= .def_104 0))
(define-fun .def_94 () Bool (not .def_93))
(define-fun .def_90 () (Array Int Int) (store .def_14 |.x{467}| |.x{50}|))
(define-fun .def_91 () Bool (= |.y{50}| .def_90))
(define-fun .def_86 () (Array Int Int) (store .def_18 |.x{471}| |.x{50}|))
(define-fun .def_87 () Bool (= |.y{52}| .def_86))
(define-fun .def_79 () Int (* (- 1) |.y{49}|))
(define-fun .def_80 () Int (+ .def_12 .def_79))
(define-fun .def_81 () Bool (= .def_80 (- 1)))
(define-fun .def_75 () Bool (and .def_68 .def_74))
(define-fun .def_77 () Bool (and .def_75 .def_76))
(define-fun .def_82 () Bool (and .def_77 .def_81))
(define-fun .def_84 () Bool (and .def_82 .def_83))
(define-fun .def_88 () Bool (and .def_84 .def_87))
(define-fun .def_92 () Bool (and .def_88 .def_91))
(define-fun .def_95 () Bool (and .def_92 .def_94))
(define-fun .def_97 () Bool (and .def_95 .def_96))
(define-fun .def_106 () Bool (and .def_97 .def_105))
(define-fun .def_111 () Bool (and .def_106 .def_110))
(define-fun .def_113 () Bool (and .def_111 .def_112))
(define-fun .def_115 () Bool (and .def_113 .def_114))
(define-fun .def_122 () Bool (and .def_115 .def_121))
(define-fun .def_124 () Bool (and .def_122 .def_123))
(define-fun .def_126 () Bool (and .def_124 .def_125))
(define-fun .def_128 () Bool (and .def_126 .def_127))
(define-fun .def_129 () Bool (and .def_60 .def_128))
(define-fun .def_131 () Bool (and .def_129 .def_130))
(define-fun .def_133 () Bool (and .def_131 .def_132))
(define-fun .def_135 () Bool (and .def_133 .def_134))
(define-fun .def_137 () Bool (and .def_135 .def_136))
(define-fun .def_139 () Bool (and .def_137 .def_138))
(define-fun .def_141 () Bool (and .def_139 .def_140))
(define-fun .def_143 () Bool (and .def_141 .def_142))
(define-fun .def_145 () Bool (and .def_143 .def_144))
(define-fun .def_147 () Bool (and .def_145 .def_146))
(define-fun .def_149 () Bool (and .def_147 .def_148))
(define-fun .def_151 () Bool (and .def_149 .def_150))
(define-fun .def_153 () Bool (and .def_151 .def_152))
(define-fun .def_154 () Bool (and |.loc{9}| .def_153))
(define-fun .def_541 () Bool (or .def_154 .def_540))
(define-fun .def_543 () Bool (! (and .def_541 .def_542) :trans true))
(define-fun .def_547 () Bool (and .def_66 .def_545))
(define-fun .def_548 () Bool (! (not .def_547) :invar-property 0))
(assert true)
